(set-logic QF_S)
(declare-fun var_0xINPUT_48499 () String)
(assert (and (= (len var_0xINPUT_48499) 0) (= (len var_0xINPUT_48499) 0) (not (= var_0xINPUT_48499 "pVEECEXk2p"))))
(check-sat var_0xINPUT_48499)